NAME: map7_72
TYPE: TSP
COMMENT: autogenerated using a wonderful map creator
DIMENSION: 96
EDGE_WEIGHT_TYPE: EUC_2D
NODE_COORD_SECTION
1 4.0 2.0
2 3.0 2.0
3 4.0 5.0
4 3.0 5.0
5 4.0 8.0
6 3.0 8.0
7 79.0 2.0
8 80.0 2.0
9 79.0 5.0
10 80.0 5.0
11 79.0 8.0
12 80.0 8.0
13 2.0 2.0
14 1.0 2.0
15 81.0 5.0
16 82.0 5.0
17 2.0 8.0
18 1.0 8.0
19 81.0 2.0
20 82.0 2.0
21 2.0 5.0
22 1.0 5.0
23 81.0 8.0
24 82.0 8.0
25 79.0 3.0
26 80.0 3.0
27 79.0 6.0
28 80.0 6.0
29 79.0 9.0
30 80.0 9.0
31 4.0 3.0
32 3.0 3.0
33 4.0 6.0
34 3.0 6.0
35 4.0 9.0
36 3.0 9.0
37 81.0 3.0
38 82.0 3.0
39 2.0 6.0
40 1.0 6.0
41 81.0 9.0
42 82.0 9.0
43 2.0 3.0
44 1.0 3.0
45 81.0 6.0
46 82.0 6.0
47 2.0 9.0
48 1.0 9.0
49 22.0 2.0
50 53.0 5.0
51 31.0 8.0
52 69.0 4.0
53 69.0 7.0
54 33.0 2.0
55 61.0 5.0
56 75.0 8.0
57 35.0 2.0
58 24.0 2.0
59 68.0 8.0
60 17.0 8.0
61 13.0 5.0
62 24.0 5.0
63 66.0 8.0
64 48.0 8.0
65 68.0 5.0
66 39.0 2.0
67 14.0 2.0
68 14.0 6.0
69 70.0 2.0
70 16.0 8.0
71 17.0 2.0
72 59.0 5.0
73 69.0 3.0
74 28.0 2.0
75 70.0 8.0
76 8.0 2.0
77 30.0 2.0
78 74.0 2.0
79 59.0 8.0
80 50.0 8.0
81 41.0 5.0
82 19.0 5.0
83 43.0 8.0
84 76.0 8.0
85 65.0 8.0
86 43.0 5.0
87 52.0 8.0
88 25.0 3.0
89 19.0 2.0
90 25.0 6.0
91 21.0 2.0
92 29.0 5.0
93 63.0 8.0
94 45.0 2.0
95 23.0 5.0
96 54.0 8.0
97 36.0 2.0
98 47.0 2.0
99 69.0 8.0
100 45.0 8.0
101 36.0 5.0
102 69.0 5.0
103 58.0 5.0
104 27.0 2.0
105 67.0 8.0
106 58.0 2.0
107 34.0 8.0
108 34.0 5.0
109 25.0 5.0
110 67.0 5.0
111 25.0 8.0
112 16.0 5.0
113 49.0 5.0
114 18.0 2.0
115 73.0 2.0
116 73.0 8.0
117 71.0 8.0
118 20.0 2.0
119 18.0 8.0
120 40.0 8.0
START_DEPOT_SECTION
1
2
3
4
5
6
7
8
9
10
11
12
13
14
15
16
17
18
19
20
21
22
23
24
-1
END_DEPOT_SECTION
25
26
27
28
29
30
31
32
33
34
35
36
37
38
39
40
41
42
43
44
45
46
47
48
-1
EOF
